<number of tasks>
20

<cycle time>
1000

<order strength>
0,3

<task times>
1 172
2 73
3 288
4 203
5 152
6 84
7 188
8 105
9 256
10 259
11 148
12 172
13 149
14 189
15 59
16 265
17 91
18 61
19 122
20 92

<precedence relations>
1,9
2,12
3,6
3,12
4,10
5,8
6,17
6,20
7,14
8,13
8,15
9,11
9,15
10,8
13,6
14,8
15,17
18,10

<end>
